WARNING: for repeatability, setting FPU to use double precision
============================[ Problem Statistics ]=============================
|                                                                             |
|  Number of variables:            50                                         |
|  Number of clauses:             218                                         |
|  Parse time:                   0.00 s                                       |
|                                                                             |
============================[ Search Statistics ]==============================
| Conflicts |          ORIGINAL         |          LEARNT          | Progress |
|           |    Vars  Clauses Literals |    Limit  Clauses Lit/Cl |          |
===============================================================================
===============================================================================
restarts              : 1
conflicts             : 25             (17973 /sec)
decisions             : 38             (0.00 % random) (27318 /sec)
propagations          : 396            (284687 /sec)
conflict literals     : 124            (6.06 % deleted)
Memory used           : 20.00 MB
CPU time              : 0.001391 s

SATISFIABLE
